data/MCDM/NO_CORR/GEN_FROM_60/10_ITEMS_1000_GEN/K5010W18.KNP.mps
NAME          BLANK   
ROWS
 N  OBJROW
 L  R0000000
COLUMNS
    C0000000  OBJROW     -435.         R0000000  446.        
    C0000001  OBJROW     -154.         R0000000  485.        
    C0000002  OBJROW     -832.         R0000000  997.        
    C0000003  OBJROW     -226.         R0000000  110.        
    C0000004  OBJROW     -74.          R0000000  470.        
    C0000005  OBJROW     -16.          R0000000  116.        
    C0000006  OBJROW     -654.         R0000000  669.        
    C0000007  OBJROW     -716.         R0000000  367.        
    C0000008  OBJROW     -671.         R0000000  253.        
    C0000009  OBJROW     -627.         R0000000  569.        
RHS
    RHS       R0000000  14132.      
BOUNDS
 BV BOUND     C0000000  1.          
 BV BOUND     C0000001  1.          
 BV BOUND     C0000002  1.          
 BV BOUND     C0000003  1.          
 BV BOUND     C0000004  1.          
 BV BOUND     C0000005  1.          
 BV BOUND     C0000006  1.          
 BV BOUND     C0000007  1.          
 BV BOUND     C0000008  1.          
 BV BOUND     C0000009  1.          
ENDATA
