interdiction/MCDM/NO_CORR/GEN_FROM_60/10_ITEMS_1000_GEN/K5010W18.KNP.txt
N 10
M 11
LC 10
LC 11
LC 12
LC 13
LC 14
LC 15
LC 16
LC 17
LC 18
LC 19
LR 1
LR 2
LR 3
LR 4
LR 5
LR 6
LR 7
LR 8
LR 9
LR 10
LR 11
LO -435
LO -154
LO -832
LO -226
LO -74
LO -16
LO -654
LO -716
LO -671
LO -627
OS 1
IC 491
IC 459
IC 52
IC 966
IC 697
IC 482
IC 378
IC 859
IC 338
IC 989
IB 2856
